Optimize a model with 896 rows, 309 columns and 2925 nonzeros
Variable types: 36 continuous, 273 integer (273 binary)
Coefficient statistics:
  Matrix range     [1e+00, 1e+04]
  Objective range  [3e-02, 1e+00]
  Bounds range     [1e+00, 1e+00]
  RHS range        [1e+00, 1e+04]
Presolve removed 188 rows and 10 columns
Presolve time: 0.02s
Presolved: 708 rows, 299 columns, 5059 nonzeros
Variable types: 34 continuous, 265 integer (265 binary)

Root relaxation: objective 1.022690e+02, 156 iterations, 0.01 seconds

    Nodes    |    Current Node    |     Objective Bounds      |     Work
 Expl Unexpl |  Obj  Depth IntInf | Incumbent    BestBd   Gap | It/Node Time

     0     0  102.26902    0   43          -  102.26902      -     -    0s
     0     0  102.42686    0   42          -  102.42686      -     -    0s
     0     0  102.43449    0   43          -  102.43449      -     -    0s
     0     0  102.66204    0   41          -  102.66204      -     -    0s
     0     0  102.73164    0   51          -  102.73164      -     -    0s
     0     0  102.84139    0   49          -  102.84139      -     -    0s
     0     0  102.84159    0   47          -  102.84159      -     -    0s
     0     0  102.85283    0   52          -  102.85283      -     -    0s
     0     0  102.85331    0   51          -  102.85331      -     -    0s
     0     0  102.85381    0   52          -  102.85381      -     -    0s
     0     2  102.85381    0   52          -  102.85381      -     -    0s
* 6262  3701              48     106.0670921  103.55277  2.37%   6.8    4s

Cutting planes:
  Learned: 1
  Gomory: 12
  Implied bound: 8
  MIR: 2
  Flow cover: 5
  Zero half: 5

Explored 6410 nodes (85271 simplex iterations) in 4.46 seconds
Thread count was 32 (of 144 available processors)

Solution count 1: 106.067 
Pool objective bound 103.553

Optimal solution found (tolerance 3.50e-02)
Best objective 1.060670921192e+02, best bound 1.035527741311e+02, gap 2.3705%
